756
837
1078
1812
693
1664
726
432
1948
1086
829
1524
1616
420
890
1624
934
308
2090
1820
2124
70
1014
426
1016
585
2117
1075
897
2002
1215
196
87
1185
1602
1842
1361
493
763
1640
548
448
1198
475
1745
808
1332
219
256
1582
